131 5
10 10 10 10 10 

0 0 0 0 0 0 1 2 
0 0 0 0 0 0 2 3 4 
4 1 0 0 0 0 2 12 5 
4 3 0 0 0 0 1 5 
4 4 0 0 0 0 1 6 
4 2 0 0 0 0 2 11 7 
7 2 0 0 0 0 1 8 
5 4 0 0 0 0 1 9 
4 2 0 0 0 0 1 10 
10 3 0 0 0 0 1 13 
7 2 0 0 0 0 1 13 
4 2 0 0 0 0 1 13 
0 0 0 0 0 0 2 14 26 
0 0 0 0 0 0 1 15 
1 0 1 0 0 0 1 16 
6 0 4 0 0 0 2 19 17 
4 0 2 0 0 0 3 20 18 29 
1 0 1 0 0 0 2 24 21 
5 0 3 0 0 0 2 24 21 
9 0 3 0 0 0 2 24 22 
4 0 4 0 0 0 1 22 
1 0 2 0 0 0 1 23 
3 0 1 0 0 0 1 25 
9 0 4 0 0 0 1 25 
0 0 0 0 0 0 5 48 60 72 84 96 
0 0 0 0 0 0 3 27 35 40 
1 0 0 1 0 1 1 28 
6 0 0 1 0 3 1 29 
8 0 0 1 0 2 1 30 
10 0 0 2 0 2 2 43 31 
2 0 0 3 0 4 1 32 
1 0 0 4 0 2 1 33 
4 0 0 3 0 2 2 45 34 
6 0 0 1 0 5 1 36 
1 0 0 3 0 2 2 46 38 
3 0 0 1 0 4 1 37 
4 0 0 3 0 3 1 38 
6 0 0 6 0 1 1 39 
1 0 0 3 0 2 1 41 
5 0 0 3 0 2 2 41 89 
6 0 0 2 0 2 1 42 
6 0 0 3 0 6 1 44 
1 0 0 3 0 2 1 44 
4 0 0 3 0 2 1 47 
5 0 0 2 0 2 1 47 
10 0 0 2 0 1 1 47 
0 0 0 0 0 0 1 108 
0 0 0 0 0 0 3 49 52 53 
6 1 0 0 0 0 1 50 
10 2 0 0 0 0 2 51 64 
10 6 0 0 0 0 2 58 54 
10 2 0 0 0 0 2 58 55 
6 3 0 0 0 0 1 54 
10 3 0 0 0 0 1 55 
8 2 0 0 0 0 1 56 
9 2 0 0 0 0 1 57 
8 3 0 0 0 0 1 59 
3 1 0 0 0 0 1 59 
0 0 0 0 0 0 1 108 
0 0 0 0 0 0 1 61 
9 1 0 0 0 0 2 62 94 
1 4 0 0 0 0 2 68 63 
5 2 0 0 0 0 2 65 64 
1 2 0 0 0 0 2 70 66 
3 3 0 0 0 0 2 70 67 
6 3 0 0 0 0 1 67 
2 3 0 0 0 0 1 69 
9 2 0 0 0 0 1 70 
10 3 0 0 0 0 1 71 
4 2 0 0 0 0 1 71 
0 0 0 0 0 0 1 108 
0 0 0 0 0 0 2 73 77 
3 0 1 0 0 0 1 74 
5 0 1 0 0 0 2 80 75 
7 0 3 0 0 0 1 76 
3 0 3 0 0 0 2 82 78 
2 0 1 0 0 0 2 81 80 
2 0 6 0 0 0 1 79 
3 0 4 0 0 0 1 81 
4 0 2 0 0 0 1 82 
7 0 2 0 0 0 2 83 106 
5 0 2 0 0 0 1 83 
0 0 0 0 0 0 1 108 
0 0 0 0 0 0 4 85 86 88 100 
6 0 1 0 0 0 1 87 
1 0 3 0 0 0 1 87 
8 0 4 0 0 0 2 92 89 
2 0 3 0 0 0 2 92 89 
3 0 2 0 0 0 1 90 
10 0 3 0 0 0 1 91 
4 0 1 0 0 0 1 93 
10 0 1 0 0 0 1 93 
5 0 3 0 0 0 1 94 
6 0 4 0 0 0 1 95 
0 0 0 0 0 0 1 108 
0 0 0 0 0 0 1 97 
7 0 1 0 0 0 2 102 98 
3 0 3 0 0 0 1 99 
3 0 4 0 0 0 2 106 100 
10 0 1 0 0 0 1 101 
7 0 3 0 0 0 2 104 103 
7 0 3 0 0 0 1 103 
7 0 3 0 0 0 1 105 
1 0 3 0 0 0 1 105 
8 0 2 0 0 0 1 107 
9 0 2 0 0 0 1 107 
0 0 0 0 0 0 1 108 
0 0 0 0 0 0 3 109 112 115 
1 0 0 1 0 0 1 110 
9 0 0 1 0 0 1 111 
2 0 0 1 0 0 1 113 
1 0 0 3 0 0 1 113 
5 0 0 3 0 0 1 114 
10 0 0 2 0 0 2 118 116 
8 0 0 4 0 0 2 118 117 
2 0 0 6 0 0 1 117 
9 0 0 1 0 0 1 119 
10 0 0 3 0 0 1 119 
0 0 0 0 0 0 1 120 
0 0 0 0 0 0 1 121 
9 0 0 0 0 1 3 125 124 122 
5 0 0 0 0 1 2 127 123 
10 0 0 0 0 2 1 126 
9 0 0 0 0 5 1 127 
6 0 0 0 0 1 1 126 
2 0 0 0 0 4 1 128 
2 0 0 0 0 4 1 128 
1 0 0 0 0 3 1 129 
8 0 0 0 0 1 1 130 
4 0 0 0 0 3 1 131 
0 0 0 0 0 0 0 
